TCS_Benchmarks/redos_fix/corpus1_output_distinct_3293_3292_0_0.smt2
(set-logic QF_S)
(declare-const x String)
(assert (str.in.re x (re.inter (re.* (re.union (re.range "\u{00}" "\u{09}") (re.range "\u{0b}" "\u{0c}") (re.range "\u{0e}" "\u{84}") (re.range "\u{86}" "\u{ff}")) )  (re.++ (re.* (re.union (re.range "\u{00}" "\u{09}") (re.range "\u{0b}" "\u{0c}") (re.range "\u{0e}" "\u{84}") (re.range "\u{86}" "\u{ff}")) ) (re.++  (re.++  (str.to.re "\u{2f}") (re.++  (str.to.re "\u{61}") (re.++  (str.to.re "\u{6e}") (re.++  (str.to.re "\u{61}") (re.++  (str.to.re "\u{6c}") (re.++  (str.to.re "\u{79}") (re.++  (str.to.re "\u{74}") (re.++  (str.to.re "\u{69}") (re.++  (str.to.re "\u{63}") (re.++  (str.to.re "\u{73}") (re.++  (str.to.re "\u{2f}") (re.++  (str.to.re "\u{76}") (re.++  (str.to.re "\u{33}") (re.++  (str.to.re "\u{2f}") (re.++  (str.to.re "\u{64}") (re.++  (str.to.re "\u{61}") (re.++  (str.to.re "\u{74}") (re.++  (str.to.re "\u{61}") (re.++  (str.to.re "\u{2f}") (re.++  (str.to.re "\u{67}")  (str.to.re "\u{61}"))))))))))))))))))))) (re.* (re.union (re.range "\u{00}" "\u{09}") (re.range "\u{0b}" "\u{0c}") (re.range "\u{0e}" "\u{84}") (re.range "\u{86}" "\u{ff}")) ))) (re.* (re.union (re.range "\u{00}" "\u{09}") (re.range "\u{0b}" "\u{0c}") (re.range "\u{0e}" "\u{84}") (re.range "\u{86}" "\u{ff}")) ) )))
(check-sat)
(get-model)