TCS_Benchmarks/redos_fix/corpus1_output_distinct_3293_3292_0_0.txt
.*
(.*)(\/analytics\/v3\/data\/ga)(.*)
.*